Instance name : DPDPTWUR-R_one_clustering_DPDPTW-R_mitrovic-minic_Rnd6_10h_100_001_slice_5
Authors : 
Date : 
Reference 
Solution
Route 1 : 37 54 5 61 1 93 110 26 11 39 53 44 46 2 29 100 6 95 57 40 62 35 96 82 42 58 91 7 109 102 67 19 9 75 51 98 107 85 63 65 
Route 2 : 4 36 60 92 27 10 66 18 31 74 38 87 94 21 77 41 30 32 86 83 88 97 55 111 14 70 16 72 
Route 3 : 3 59 45 8 25 64 81 101 33 89 17 15 71 22 43 78 47 103 99 12 73 68 13 69 
Route 4 : 23 48 34 104 79 52 90 108 
Route 5 : 56 112 28 84 50 106 
Route 6 : 24 80 20 76 49 105 
Route 7 : 
Route 8 : 
Route 9 : 
Route 10 : 
Route 11 : 
Route 12 : 
Route 13 : 
Route 14 : 
Route 15 : 
Route 16 : 
Route 17 : 
Route 18 : 
Route 19 : 
Route 20 : 
Route 21 : 
